







































































































12 29 70 37 72 51 3 58 
44 9 26 8 57 21 62 73 
50 54 13 34 64 74 41 16 47 
42 20 4 19 0 22 60 61 
32 35 38 46 30 5 66 
15 43 68 24 11 56 59 
63 27 49 65 31 6 52 28 
18 53 36 71 23 14 7 10 
33 76 40 69 55 45 67 
2 1 48 25 39 75 17 

